60
1 0 44
2 0 12
2 1 38
3 0 50
3 1 13
3 2 45
4 0 52
4 1 47
4 2 21
4 3 18
5 0 45
5 1 37
5 2 51
5 3 1
5 4 13
6 0 52
6 1 47
6 2 16
6 3 17
6 4 50
6 5 17
7 0 55
7 1 47
7 2 23
7 3 47
7 4 28
7 5 20
7 6 42
8 0 1
8 1 24
8 2 35
8 3 41
8 4 18
8 5 31
8 6 27
8 7 18
9 0 28
9 1 23
9 2 1
9 3 33
9 4 27
9 5 19
9 6 27
9 7 48
9 8 4
10 0 1
10 1 49
10 2 18
10 3 49
10 4 54
10 5 25
10 6 27
10 7 47
10 8 28
10 9 51
11 0 12
11 1 46
11 2 38
11 3 22
11 4 12
11 5 47
11 6 53
11 7 40
11 8 13
11 9 41
11 10 8
12 0 7
12 1 25
12 2 53
12 3 36
12 4 18
12 5 34
12 6 11
12 7 49
12 8 24
12 9 50
12 10 46
12 11 30
13 0 23
13 1 52
13 2 36
13 3 21
13 4 37
13 5 51
13 6 48
13 7 50
13 8 12
13 9 5
13 10 49
13 11 52
13 12 38
14 0 4
14 1 3
14 2 49
14 3 44
14 4 29
14 5 18
14 6 16
14 7 4
14 8 24
14 9 50
14 10 2
14 11 7
14 12 38
14 13 42
15 0 8
15 1 43
15 2 2
15 3 10
15 4 6
15 5 37
15 6 29
15 7 10
15 8 16
15 9 5
15 10 46
15 11 48
15 12 34
15 13 30
15 14 12
16 0 53
16 1 42
16 2 51
16 3 2
16 4 46
16 5 36
16 6 23
16 7 4
16 8 7
16 9 30
16 10 26
16 11 51
16 12 34
16 13 32
16 14 39
16 15 26
17 0 52
17 1 11
17 2 12
17 3 53
17 4 11
17 5 49
17 6 45
17 7 13
17 8 39
17 9 11
17 10 16
17 11 24
17 12 35
17 13 52
17 14 28
17 15 42
17 16 41
18 0 8
18 1 9
18 2 22
18 3 44
18 4 52
18 5 13
18 6 40
18 7 32
18 8 36
18 9 37
18 10 10
18 11 2
18 12 39
18 13 45
18 14 34
18 15 27
18 16 9
18 17 27
19 0 1
19 1 37
19 2 43
19 3 51
19 4 37
19 5 3
19 6 19
19 7 41
19 8 27
19 9 43
19 10 11
19 11 51
19 12 45
19 13 10
19 14 28
19 15 13
19 16 1
19 17 32
19 18 35
20 0 34
20 1 46
20 2 3
20 3 31
20 4 41
20 5 54
20 6 7
20 7 21
20 8 15
20 9 37
20 10 37
20 11 5
20 12 53
20 13 5
20 14 37
20 15 27
20 16 26
20 17 51
20 18 12
20 19 39
21 0 26
21 1 21
21 2 17
21 3 40
21 4 25
21 5 25
21 6 55
21 7 44
21 8 20
21 9 19
21 10 14
21 11 52
21 12 5
21 13 13
21 14 18
21 15 31
21 16 53
21 17 43
21 18 28
21 19 3
21 20 23
22 0 12
22 1 47
22 2 4
22 3 5
22 4 40
22 5 53
22 6 23
22 7 50
22 8 30
22 9 50
22 10 4
22 11 25
22 12 5
22 13 4
22 14 49
22 15 3
22 16 41
22 17 18
22 18 32
22 19 39
22 20 27
22 21 53
23 0 18
23 1 48
23 2 13
23 3 9
23 4 10
23 5 25
23 6 36
23 7 52
23 8 42
23 9 42
23 10 47
23 11 54
23 12 17
23 13 3
23 14 5
23 15 35
23 16 46
23 17 9
23 18 37
23 19 4
23 20 1
23 21 15
23 22 16
24 0 21
24 1 6
24 2 32
24 3 46
24 4 5
24 5 49
24 6 43
24 7 12
24 8 19
24 9 33
24 10 24
24 11 42
24 12 44
24 13 17
24 14 33
24 15 21
24 16 49
24 17 6
24 18 19
24 19 14
24 20 9
24 21 2
24 22 9
24 23 5
25 0 32
25 1 48
25 2 8
25 3 53
25 4 22
25 5 1
25 6 29
25 7 20
25 8 27
25 9 53
25 10 14
25 11 51
25 12 36
25 13 24
25 14 7
25 15 2
25 16 12
25 17 51
25 18 4
25 19 16
25 20 30
25 21 12
25 22 36
25 23 23
25 24 4
26 0 18
26 1 26
26 2 10
26 3 6
26 4 36
26 5 29
26 6 17
26 7 5
26 8 29
26 9 18
26 10 41
26 11 49
26 12 20
26 13 27
26 14 22
26 15 9
26 16 6
26 17 14
26 18 18
26 19 17
26 20 30
26 21 41
26 22 8
26 23 51
26 24 48
26 25 18
27 0 50
27 1 13
27 2 31
27 3 12
27 4 1
27 5 49
27 6 18
27 7 4
27 8 27
27 9 45
27 10 38
27 11 25
27 12 5
27 13 16
27 14 36
27 15 15
27 16 49
27 17 20
27 18 18
27 19 30
27 20 14
27 21 8
27 22 23
27 23 10
27 24 28
27 25 42
27 26 14
28 0 37
28 1 30
28 2 1
28 3 24
28 4 35
28 5 20
28 6 44
28 7 24
28 8 47
28 9 7
28 10 4
28 11 36
28 12 18
28 13 13
28 14 50
28 15 49
28 16 4
28 17 32
28 18 41
28 19 8
28 20 7
28 21 55
28 22 1
28 23 5
28 24 40
28 25 31
28 26 41
28 27 50
29 0 37
29 1 4
29 2 43
29 3 13
29 4 28
29 5 55
29 6 40
29 7 3
29 8 41
29 9 4
29 10 44
29 11 19
29 12 28
29 13 33
29 14 8
29 15 33
29 16 7
29 17 35
29 18 18
29 19 11
29 20 45
29 21 39
29 22 53
29 23 43
29 24 10
29 25 19
29 26 50
29 27 44
29 28 17
30 0 45
30 1 20
30 2 49
30 3 45
30 4 46
30 5 33
30 6 52
30 7 50
30 8 9
30 9 26
30 10 37
30 11 20
30 12 9
30 13 53
30 14 21
30 15 6
30 16 2
30 17 1
30 18 12
30 19 40
30 20 6
30 21 43
30 22 44
30 23 54
30 24 15
30 25 51
30 26 21
30 27 22
30 28 49
30 29 30
31 0 35
31 1 15
31 2 17
31 3 55
31 4 50
31 5 45
31 6 48
31 7 28
31 8 33
31 9 10
31 10 26
31 11 24
31 12 40
31 13 34
31 14 27
31 15 37
31 16 3
31 17 7
31 18 53
31 19 24
31 20 15
31 21 8
31 22 19
31 23 17
31 24 10
31 25 14
31 26 52
31 27 36
31 28 44
31 29 52
31 30 23
32 0 20
32 1 44
32 2 50
32 3 13
32 4 45
32 5 42
32 6 24
32 7 27
32 8 23
32 9 11
32 10 41
32 11 17
32 12 4
32 13 14
32 14 31
32 15 39
32 16 31
32 17 28
32 18 55
32 19 44
32 20 30
32 21 23
32 22 41
32 23 16
32 24 43
32 25 7
32 26 12
32 27 17
32 28 36
32 29 53
32 30 39
32 31 24
33 0 16
33 1 32
33 2 14
33 3 42
33 4 34
33 5 35
33 6 30
33 7 16
33 8 18
33 9 31
33 10 42
33 11 53
33 12 35
33 13 45
33 14 44
33 15 14
33 16 55
33 17 25
33 18 42
33 19 47
33 20 27
33 21 5
33 22 44
33 23 13
33 24 26
33 25 43
33 26 49
33 27 47
33 28 32
33 29 48
33 30 46
33 31 17
33 32 15
34 0 20
34 1 39
34 2 50
34 3 23
34 4 1
34 5 36
34 6 12
34 7 50
34 8 23
34 9 30
34 10 38
34 11 41
34 12 34
34 13 51
34 14 22
34 15 35
34 16 10
34 17 31
34 18 25
34 19 46
34 20 34
34 21 54
34 22 44
34 23 31
34 24 34
34 25 18
34 26 5
34 27 35
34 28 37
34 29 15
34 30 14
34 31 43
34 32 35
34 33 28
35 0 41
35 1 1
35 2 45
35 3 26
35 4 32
35 5 52
35 6 16
35 7 9
35 8 39
35 9 47
35 10 28
35 11 7
35 12 15
35 13 50
35 14 37
35 15 7
35 16 49
35 17 8
35 18 13
35 19 48
35 20 52
35 21 36
35 22 33
35 23 1
35 24 27
35 25 9
35 26 36
35 27 16
35 28 18
35 29 21
35 30 5
35 31 16
35 32 18
35 33 24
35 34 20
36 0 22
36 1 2
36 2 2
36 3 40
36 4 53
36 5 15
36 6 45
36 7 55
36 8 36
36 9 50
36 10 35
36 11 30
36 12 21
36 13 26
36 14 31
36 15 6
36 16 31
36 17 3
36 18 19
36 19 2
36 20 29
36 21 32
36 22 10
36 23 19
36 24 2
36 25 29
36 26 15
36 27 33
36 28 35
36 29 40
36 30 27
36 31 23
36 32 5
36 33 39
36 34 51
36 35 10
37 0 7
37 1 38
37 2 26
37 3 17
37 4 21
37 5 16
37 6 27
37 7 11
37 8 50
37 9 33
37 10 14
37 11 19
37 12 9
37 13 54
37 14 41
37 15 42
37 16 55
37 17 52
37 18 50
37 19 23
37 20 1
37 21 44
37 22 40
37 23 15
37 24 29
37 25 8
37 26 19
37 27 11
37 28 52
37 29 8
37 30 9
37 31 4
37 32 7
37 33 17
37 34 3
37 35 23
37 36 18
38 0 18
38 1 30
38 2 38
38 3 29
38 4 39
38 5 55
38 6 4
38 7 15
38 8 55
38 9 54
38 10 5
38 11 36
38 12 13
38 13 17
38 14 48
38 15 35
38 16 4
38 17 42
38 18 24
38 19 55
38 20 45
38 21 2
38 22 27
38 23 37
38 24 21
38 25 35
38 26 47
38 27 19
38 28 36
38 29 46
38 30 3
38 31 13
38 32 50
38 33 46
38 34 50
38 35 45
38 36 21
38 37 39
39 0 25
39 1 32
39 2 49
39 3 42
39 4 49
39 5 21
39 6 17
39 7 31
39 8 53
39 9 45
39 10 12
39 11 30
39 12 40
39 13 30
39 14 9
39 15 54
39 16 32
39 17 46
39 18 52
39 19 55
39 20 3
39 21 28
39 22 18
39 23 33
39 24 40
39 25 2
39 26 55
39 27 45
39 28 29
39 29 33
39 30 21
39 31 51
39 32 37
39 33 22
39 34 54
39 35 51
39 36 30
39 37 11
39 38 4
40 0 38
40 1 13
40 2 22
40 3 13
40 4 54
40 5 8
40 6 40
40 7 42
40 8 28
40 9 19
40 10 19
40 11 52
40 12 19
40 13 12
40 14 18
40 15 8
40 16 10
40 17 46
40 18 22
40 19 31
40 20 55
40 21 3
40 22 31
40 23 34
40 24 23
40 25 2
40 26 7
40 27 7
40 28 48
40 29 4
40 30 46
40 31 39
40 32 1
40 33 34
40 34 43
40 35 7
40 36 14
40 37 54
40 38 38
40 39 20
41 0 23
41 1 14
41 2 55
41 3 4
41 4 33
41 5 3
41 6 51
41 7 6
41 8 2
41 9 32
41 10 15
41 11 37
41 12 20
41 13 47
41 14 39
41 15 10
41 16 37
41 17 53
41 18 46
41 19 46
41 20 12
41 21 5
41 22 14
41 23 33
41 24 38
41 25 22
41 26 20
41 27 55
41 28 19
41 29 52
41 30 39
41 31 53
41 32 28
41 33 23
41 34 2
41 35 31
41 36 9
41 37 21
41 38 27
41 39 26
41 40 39
42 0 6
42 1 24
42 2 28
42 3 55
42 4 12
42 5 50
42 6 27
42 7 21
42 8 1
42 9 44
42 10 9
42 11 14
42 12 50
42 13 9
42 14 19
42 15 16
42 16 16
42 17 8
42 18 7
42 19 31
42 20 6
42 21 35
42 22 46
42 23 4
42 24 34
42 25 35
42 26 19
42 27 21
42 28 12
42 29 37
42 30 41
42 31 21
42 32 24
42 33 54
42 34 22
42 35 32
42 36 19
42 37 25
42 38 8
42 39 5
42 40 52
42 41 2
43 0 47
43 1 28
43 2 26
43 3 32
43 4 47
43 5 16
43 6 25
43 7 12
43 8 50
43 9 3
43 10 4
43 11 32
43 12 27
43 13 25
43 14 19
43 15 27
43 16 55
43 17 3
43 18 41
43 19 10
43 20 39
43 21 25
43 22 32
43 23 50
43 24 47
43 25 48
43 26 21
43 27 31
43 28 7
43 29 34
43 30 40
43 31 42
43 32 20
43 33 15
43 34 27
43 35 17
43 36 20
43 37 34
43 38 26
43 39 19
43 40 53
43 41 21
43 42 47
44 0 15
44 1 46
44 2 33
44 3 45
44 4 16
44 5 46
44 6 4
44 7 22
44 8 18
44 9 30
44 10 2
44 11 30
44 12 32
44 13 32
44 14 18
44 15 28
44 16 52
44 17 39
44 18 33
44 19 31
44 20 1
44 21 45
44 22 4
44 23 21
44 24 29
44 25 24
44 26 9
44 27 28
44 28 23
44 29 6
44 30 55
44 31 54
44 32 41
44 33 3
44 34 31
44 35 54
44 36 16
44 37 45
44 38 46
44 39 49
44 40 31
44 41 40
44 42 24
44 43 17
45 0 18
45 1 30
45 2 32
45 3 49
45 4 16
45 5 31
45 6 8
45 7 52
45 8 9
45 9 7
45 10 18
45 11 22
45 12 17
45 13 55
45 14 19
45 15 10
45 16 2
45 17 23
45 18 47
45 19 29
45 20 41
45 21 43
45 22 55
45 23 33
45 24 46
45 25 43
45 26 45
45 27 12
45 28 51
45 29 9
45 30 44
45 31 53
45 32 51
45 33 52
45 34 54
45 35 42
45 36 46
45 37 41
45 38 9
45 39 37
45 40 22
45 41 51
45 42 42
45 43 30
45 44 7
46 0 22
46 1 36
46 2 40
46 3 2
46 4 16
46 5 45
46 6 9
46 7 20
46 8 55
46 9 43
46 10 16
46 11 46
46 12 14
46 13 8
46 14 39
46 15 39
46 16 9
46 17 30
46 18 35
46 19 8
46 20 18
46 21 7
46 22 25
46 23 47
46 24 40
46 25 4
46 26 48
46 27 15
46 28 41
46 29 54
46 30 39
46 31 22
46 32 25
46 33 4
46 34 54
46 35 2
46 36 22
46 37 18
46 38 6
46 39 26
46 40 11
46 41 27
46 42 26
46 43 23
46 44 37
46 45 4
47 0 1
47 1 47
47 2 27
47 3 52
47 4 32
47 5 15
47 6 30
47 7 21
47 8 21
47 9 12
47 10 27
47 11 13
47 12 4
47 13 18
47 14 48
47 15 2
47 16 35
47 17 1
47 18 22
47 19 41
47 20 20
47 21 51
47 22 44
47 23 47
47 24 15
47 25 19
47 26 18
47 27 51
47 28 26
47 29 19
47 30 15
47 31 29
47 32 15
47 33 32
47 34 22
47 35 34
47 36 11
47 37 39
47 38 46
47 39 23
47 40 7
47 41 54
47 42 24
47 43 30
47 44 8
47 45 24
47 46 29
48 0 48
48 1 54
48 2 49
48 3 55
48 4 25
48 5 55
48 6 23
48 7 49
48 8 24
48 9 10
48 10 7
48 11 46
48 12 36
48 13 30
48 14 32
48 15 10
48 16 37
48 17 51
48 18 48
48 19 37
48 20 6
48 21 4
48 22 22
48 23 45
48 24 44
48 25 26
48 26 43
48 27 32
48 28 48
48 29 26
48 30 30
48 31 44
48 32 52
48 33 19
48 34 26
48 35 31
48 36 6
48 37 37
48 38 31
48 39 28
48 40 11
48 41 3
48 42 21
48 43 39
48 44 30
48 45 48
48 46 47
48 47 27
49 0 19
49 1 51
49 2 2
49 3 34
49 4 21
49 5 53
49 6 22
49 7 29
49 8 22
49 9 21
49 10 26
49 11 23
49 12 39
49 13 45
49 14 2
49 15 40
49 16 39
49 17 16
49 18 14
49 19 51
49 20 21
49 21 51
49 22 20
49 23 52
49 24 53
49 25 50
49 26 35
49 27 28
49 28 17
49 29 36
49 30 7
49 31 12
49 32 41
49 33 41
49 34 9
49 35 9
49 36 21
49 37 50
49 38 26
49 39 27
49 40 3
49 41 3
49 42 35
49 43 4
49 44 34
49 45 29
49 46 21
49 47 17
49 48 9
50 0 20
50 1 22
50 2 30
50 3 5
50 4 2
50 5 10
50 6 51
50 7 36
50 8 23
50 9 49
50 10 24
50 11 55
50 12 4
50 13 12
50 14 19
50 15 45
50 16 16
50 17 43
50 18 44
50 19 28
50 20 10
50 21 27
50 22 38
50 23 53
50 24 1
50 25 6
50 26 16
50 27 44
50 28 22
50 29 31
50 30 30
50 31 20
50 32 10
50 33 7
50 34 28
50 35 49
50 36 2
50 37 18
50 38 39
50 39 54
50 40 6
50 41 11
50 42 14
50 43 32
50 44 18
50 45 12
50 46 49
50 47 47
50 48 4
50 49 14
51 0 38
51 1 12
51 2 21
51 3 6
51 4 35
51 5 21
51 6 1
51 7 26
51 8 24
51 9 33
51 10 46
51 11 38
51 12 25
51 13 53
51 14 21
51 15 20
51 16 31
51 17 38
51 18 44
51 19 35
51 20 5
51 21 43
51 22 18
51 23 5
51 24 25
51 25 25
51 26 41
51 27 7
51 28 49
51 29 2
51 30 9
51 31 24
51 32 36
51 33 30
51 34 24
51 35 11
51 36 23
51 37 55
51 38 12
51 39 37
51 40 31
51 41 4
51 42 44
51 43 29
51 44 8
51 45 41
51 46 39
51 47 11
51 48 6
51 49 11
51 50 5
52 0 51
52 1 24
52 2 41
52 3 12
52 4 14
52 5 10
52 6 50
52 7 41
52 8 17
52 9 27
52 10 48
52 11 13
52 12 5
52 13 13
52 14 30
52 15 33
52 16 23
52 17 37
52 18 30
52 19 5
52 20 25
52 21 27
52 22 25
52 23 49
52 24 53
52 25 43
52 26 11
52 27 2
52 28 28
52 29 18
52 30 29
52 31 25
52 32 31
52 33 38
52 34 45
52 35 49
52 36 51
52 37 20
52 38 45
52 39 46
52 40 4
52 41 52
52 42 49
52 43 35
52 44 27
52 45 38
52 46 53
52 47 32
52 48 40
52 49 38
52 50 18
52 51 29
53 0 53
53 1 38
53 2 44
53 3 21
53 4 32
53 5 38
53 6 52
53 7 22
53 8 21
53 9 4
53 10 36
53 11 25
53 12 54
53 13 25
53 14 43
53 15 17
53 16 28
53 17 35
53 18 55
53 19 42
53 20 11
53 21 32
53 22 1
53 23 18
53 24 52
53 25 4
53 26 37
53 27 25
53 28 50
53 29 21
53 30 41
53 31 48
53 32 14
53 33 26
53 34 21
53 35 9
53 36 11
53 37 16
53 38 20
53 39 1
53 40 38
53 41 3
53 42 53
53 43 28
53 44 13
53 45 52
53 46 43
53 47 20
53 48 5
53 49 24
53 50 47
53 51 23
53 52 22
54 0 55
54 1 11
54 2 55
54 3 18
54 4 11
54 5 11
54 6 44
54 7 8
54 8 17
54 9 45
54 10 48
54 11 44
54 12 52
54 13 17
54 14 51
54 15 21
54 16 14
54 17 5
54 18 17
54 19 36
54 20 42
54 21 44
54 22 2
54 23 28
54 24 8
54 25 46
54 26 55
54 27 52
54 28 2
54 29 46
54 30 52
54 31 54
54 32 50
54 33 48
54 34 7
54 35 31
54 36 40
54 37 17
54 38 36
54 39 30
54 40 45
54 41 39
54 42 46
54 43 4
54 44 3
54 45 4
54 46 1
54 47 55
54 48 23
54 49 29
54 50 53
54 51 18
54 52 30
54 53 54
55 0 27
55 1 36
55 2 39
55 3 21
55 4 5
55 5 5
55 6 31
55 7 3
55 8 41
55 9 13
55 10 16
55 11 31
55 12 47
55 13 11
55 14 11
55 15 29
55 16 32
55 17 32
55 18 50
55 19 14
55 20 30
55 21 55
55 22 33
55 23 55
55 24 36
55 25 39
55 26 49
55 27 24
55 28 52
55 29 9
55 30 33
55 31 18
55 32 18
55 33 40
55 34 3
55 35 46
55 36 34
55 37 43
55 38 1
55 39 39
55 40 28
55 41 5
55 42 22
55 43 20
55 44 11
55 45 54
55 46 2
55 47 35
55 48 39
55 49 41
55 50 23
55 51 31
55 52 19
55 53 32
55 54 15
56 0 47
56 1 43
56 2 29
56 3 4
56 4 21
56 5 29
56 6 28
56 7 3
56 8 12
56 9 3
56 10 27
56 11 21
56 12 4
56 13 30
56 14 7
56 15 16
56 16 40
56 17 15
56 18 31
56 19 42
56 20 27
56 21 54
56 22 15
56 23 30
56 24 11
56 25 40
56 26 1
56 27 53
56 28 24
56 29 10
56 30 21
56 31 40
56 32 16
56 33 12
56 34 20
56 35 36
56 36 18
56 37 18
56 38 10
56 39 54
56 40 6
56 41 17
56 42 1
56 43 40
56 44 54
56 45 2
56 46 28
56 47 16
56 48 12
56 49 21
56 50 16
56 51 14
56 52 44
56 53 48
56 54 37
56 55 3
57 0 10
57 1 51
57 2 21
57 3 53
57 4 55
57 5 33
57 6 1
57 7 31
57 8 26
57 9 36
57 10 29
57 11 36
57 12 10
57 13 20
57 14 52
57 15 23
57 16 1
57 17 47
57 18 7
57 19 53
57 20 1
57 21 17
57 22 11
57 23 46
57 24 55
57 25 34
57 26 8
57 27 4
57 28 18
57 29 23
57 30 30
57 31 46
57 32 20
57 33 16
57 34 23
57 35 41
57 36 7
57 37 45
57 38 42
57 39 20
57 40 33
57 41 38
57 42 15
57 43 28
57 44 13
57 45 55
57 46 6
57 47 22
57 48 9
57 49 32
57 50 55
57 51 48
57 52 38
57 53 43
57 54 47
57 55 43
57 56 11
58 0 9
58 1 36
58 2 45
58 3 44
58 4 8
58 5 27
58 6 10
58 7 52
58 8 25
58 9 42
58 10 30
58 11 6
58 12 38
58 13 4
58 14 42
58 15 18
58 16 45
58 17 18
58 18 55
58 19 45
58 20 5
58 21 55
58 22 54
58 23 20
58 24 34
58 25 35
58 26 4
58 27 7
58 28 4
58 29 3
58 30 1
58 31 40
58 32 34
58 33 34
58 34 30
58 35 13
58 36 26
58 37 52
58 38 24
58 39 3
58 40 40
58 41 38
58 42 25
58 43 4
58 44 46
58 45 1
58 46 24
58 47 24
58 48 31
58 49 22
58 50 21
58 51 39
58 52 51
58 53 27
58 54 17
58 55 38
58 56 16
58 57 26
59 0 12
59 1 33
59 2 55
59 3 45
59 4 29
59 5 46
59 6 5
59 7 31
59 8 40
59 9 20
59 10 46
59 11 37
59 12 2
59 13 16
59 14 10
59 15 35
59 16 33
59 17 30
59 18 31
59 19 54
59 20 8
59 21 15
59 22 22
59 23 42
59 24 21
59 25 43
59 26 19
59 27 34
59 28 33
59 29 49
59 30 9
59 31 45
59 32 48
59 33 2
59 34 37
59 35 10
59 36 20
59 37 34
59 38 12
59 39 21
59 40 16
59 41 15
59 42 37
59 43 15
59 44 28
59 45 14
59 46 38
59 47 39
59 48 2
59 49 54
59 50 55
59 51 55
59 52 42
59 53 18
59 54 45
59 55 43
59 56 11
59 57 23
59 58 36
